p tw 480 1984
1 33
2 34
3 35
4 36
5 37
6 38
7 39
8 40
9 41
10 42
11 43
12 44
13 45
14 46
15 47
16 48
17 49
18 50
19 51
20 52
21 53
22 54
23 55
24 56
25 57
26 58
27 59
28 60
29 61
30 62
31 63
32 64
33 71
33 74
33 118
33 122
33 123
34 101
34 108
34 145
34 155
34 157
35 66
35 94
35 95
35 96
35 97
36 74
36 75
36 76
36 77
36 78
37 65
37 70
37 71
37 72
37 73
38 80
38 124
38 128
38 137
38 139
39 75
39 82
39 112
39 150
39 151
40 84
40 85
40 86
40 87
40 88
41 127
41 130
41 134
41 135
41 136
42 103
42 130
42 131
42 132
42 133
43 65
43 66
43 67
43 68
43 69
44 110
44 114
44 115
44 116
44 117
45 81
45 95
45 119
45 147
45 149
46 72
46 115
46 122
46 147
46 148
47 111
47 118
47 119
47 120
47 121
48 98
48 99
48 100
48 101
48 102
49 90
49 104
49 131
49 137
49 138
50 67
50 110
50 111
50 112
50 113
51 92
51 99
51 144
51 152
51 154
52 79
52 107
52 127
52 128
52 129
53 76
53 91
53 96
53 152
53 153
54 105
54 134
54 140
54 142
54 143
55 85
55 89
55 124
55 125
55 126
56 70
56 103
56 104
56 105
56 106
57 77
57 87
57 150
57 158
57 160
58 98
58 114
58 125
58 140
58 141
59 79
59 80
59 81
59 82
59 83
60 86
60 120
60 135
60 158
60 159
61 89
61 90
61 91
61 92
61 93
62 68
62 142
62 144
62 145
62 146
63 84
63 94
63 107
63 108
63 109
64 100
64 116
64 132
64 155
64 156
65 66
65 67
65 68
65 69
65 70
65 71
65 72
65 73
66 67
66 68
66 69
66 94
66 95
66 96
66 97
67 68
67 69
67 110
67 111
67 112
67 113
68 69
68 142
68 144
68 145
68 146
69 161
69 162
69 163
69 164
69 165
70 71
70 72
70 73
70 103
70 104
70 105
70 106
71 72
71 73
71 74
71 118
71 122
71 123
72 73
72 115
72 122
72 147
72 148
73 161
73 166
73 167
73 168
73 169
74 75
74 76
74 77
74 78
74 118
74 122
74 123
75 76
75 77
75 78
75 82
75 112
75 150
75 151
76 77
76 78
76 91
76 96
76 152
76 153
77 78
77 87
77 150
77 158
77 160
78 170
78 171
78 172
78 173
78 174
79 80
79 81
79 82
79 83
79 107
79 127
79 128
79 129
80 81
80 82
80 83
80 124
80 128
80 137
80 139
81 82
81 83
81 95
81 119
81 147
81 149
82 83
82 112
82 150
82 151
83 175
83 176
83 177
83 178
83 179
84 85
84 86
84 87
84 88
84 94
84 107
84 108
84 109
85 86
85 87
85 88
85 89
85 124
85 125
85 126
86 87
86 88
86 120
86 135
86 158
86 159
87 88
87 150
87 158
87 160
88 180
88 181
88 182
88 183
88 184
89 90
89 91
89 92
89 93
89 124
89 125
89 126
90 91
90 92
90 93
90 104
90 131
90 137
90 138
91 92
91 93
91 96
91 152
91 153
92 93
92 99
92 144
92 152
92 154
93 185
93 186
93 187
93 188
93 189
94 95
94 96
94 97
94 107
94 108
94 109
95 96
95 97
95 119
95 147
95 149
96 97
96 152
96 153
97 162
97 190
97 191
97 192
97 193
98 99
98 100
98 101
98 102
98 114
98 125
98 140
98 141
99 100
99 101
99 102
99 144
99 152
99 154
100 101
100 102
100 116
100 132
100 155
100 156
101 102
101 108
101 145
101 155
101 157
102 194
102 195
102 196
102 197
102 198
103 104
103 105
103 106
103 130
103 131
103 132
103 133
104 105
104 106
104 131
104 137
104 138
105 106
105 134
105 140
105 142
105 143
106 166
106 199
106 200
106 201
106 202
107 108
107 109
107 127
107 128
107 129
108 109
108 145
108 155
108 157
109 180
109 190
109 203
109 204
109 205
110 111
110 112
110 113
110 114
110 115
110 116
110 117
111 112
111 113
111 118
111 119
111 120
111 121
112 113
112 150
112 151
113 163
113 206
113 207
113 208
113 209
114 115
114 116
114 117
114 125
114 140
114 141
115 116
115 117
115 122
115 147
115 148
116 117
116 132
116 155
116 156
117 206
117 210
117 211
117 212
117 213
118 119
118 120
118 121
118 122
118 123
119 120
119 121
119 147
119 149
120 121
120 135
120 158
120 159
121 207
121 214
121 215
121 216
121 217
122 123
122 147
122 148
123 167
123 170
123 214
123 218
123 219
124 125
124 126
124 128
124 137
124 139
125 126
125 140
125 141
126 181
126 185
126 220
126 221
126 222
127 128
127 129
127 130
127 134
127 135
127 136
128 129
128 137
128 139
129 175
129 203
129 223
129 224
129 225
130 131
130 132
130 133
130 134
130 135
130 136
131 132
131 133
131 137
131 138
132 133
132 155
132 156
133 199
133 226
133 227
133 228
133 229
134 135
134 136
134 140
134 142
134 143
135 136
135 158
135 159
136 223
136 226
136 230
136 231
136 232
137 138
137 139
138 186
138 200
138 227
138 233
138 234
139 176
139 220
139 224
139 233
139 235
140 141
140 142
140 143
141 194
141 210
141 221
141 236
141 237
142 143
142 144
142 145
142 146
143 201
143 230
143 236
143 238
143 239
144 145
144 146
144 152
144 154
145 146
145 155
145 157
146 164
146 238
146 240
146 241
146 242
147 148
147 149
148 168
148 211
148 218
148 243
148 244
149 177
149 191
149 215
149 243
149 245
150 151
150 158
150 160
151 171
151 178
151 208
151 246
151 247
152 153
152 154
153 172
153 187
153 192
153 248
153 249
154 188
154 195
154 240
154 248
154 250
155 156
155 157
156 196
156 212
156 228
156 251
156 252
157 197
157 204
157 241
157 251
157 253
158 159
158 160
159 182
159 216
159 231
159 254
159 255
160 173
160 183
160 246
160 254
160 256
161 162
161 163
161 164
161 165
161 166
161 167
161 168
161 169
162 163
162 164
162 165
162 190
162 191
162 192
162 193
163 164
163 165
163 206
163 207
163 208
163 209
164 165
164 238
164 240
164 241
164 242
165 257
165 258
165 259
165 260
165 261
166 167
166 168
166 169
166 199
166 200
166 201
166 202
167 168
167 169
167 170
167 214
167 218
167 219
168 169
168 211
168 218
168 243
168 244
169 257
169 262
169 263
169 264
169 265
170 171
170 172
170 173
170 174
170 214
170 218
170 219
171 172
171 173
171 174
171 178
171 208
171 246
171 247
172 173
172 174
172 187
172 192
172 248
172 249
173 174
173 183
173 246
173 254
173 256
174 266
174 267
174 268
174 269
174 270
175 176
175 177
175 178
175 179
175 203
175 223
175 224
175 225
176 177
176 178
176 179
176 220
176 224
176 233
176 235
177 178
177 179
177 191
177 215
177 243
177 245
178 179
178 208
178 246
178 247
179 271
179 272
179 273
179 274
179 275
180 181
180 182
180 183
180 184
180 190
180 203
180 204
180 205
181 182
181 183
181 184
181 185
181 220
181 221
181 222
182 183
182 184
182 216
182 231
182 254
182 255
183 184
183 246
183 254
183 256
184 276
184 277
184 278
184 279
184 280
185 186
185 187
185 188
185 189
185 220
185 221
185 222
186 187
186 188
186 189
186 200
186 227
186 233
186 234
187 188
187 189
187 192
187 248
187 249
188 189
188 195
188 240
188 248
188 250
189 281
189 282
189 283
189 284
189 285
190 191
190 192
190 193
190 203
190 204
190 205
191 192
191 193
191 215
191 243
191 245
192 193
192 248
192 249
193 258
193 286
193 287
193 288
193 289
194 195
194 196
194 197
194 198
194 210
194 221
194 236
194 237
195 196
195 197
195 198
195 240
195 248
195 250
196 197
196 198
196 212
196 228
196 251
196 252
197 198
197 204
197 241
197 251
197 253
198 290
198 291
198 292
198 293
198 294
199 200
199 201
199 202
199 226
199 227
199 228
199 229
200 201
200 202
200 227
200 233
200 234
201 202
201 230
201 236
201 238
201 239
202 262
202 295
202 296
202 297
202 298
203 204
203 205
203 223
203 224
203 225
204 205
204 241
204 251
204 253
205 276
205 286
205 299
205 300
205 301
206 207
206 208
206 209
206 210
206 211
206 212
206 213
207 208
207 209
207 214
207 215
207 216
207 217
208 209
208 246
208 247
209 259
209 302
209 303
209 304
209 305
210 211
210 212
210 213
210 221
210 236
210 237
211 212
211 213
211 218
211 243
211 244
212 213
212 228
212 251
212 252
213 302
213 306
213 307
213 308
213 309
214 215
214 216
214 217
214 218
214 219
215 216
215 217
215 243
215 245
216 217
216 231
216 254
216 255
217 303
217 310
217 311
217 312
217 313
218 219
218 243
218 244
219 263
219 266
219 310
219 314
219 315
220 221
220 222
220 224
220 233
220 235
221 222
221 236
221 237
222 277
222 281
222 316
222 317
222 318
223 224
223 225
223 226
223 230
223 231
223 232
224 225
224 233
224 235
225 271
225 299
225 319
225 320
225 321
226 227
226 228
226 229
226 230
226 231
226 232
227 228
227 229
227 233
227 234
228 229
228 251
228 252
229 295
229 322
229 323
229 324
229 325
230 231
230 232
230 236
230 238
230 239
231 232
231 254
231 255
232 319
232 322
232 326
232 327
232 328
233 234
233 235
234 282
234 296
234 323
234 329
234 330
235 272
235 316
235 320
235 329
235 331
236 237
236 238
236 239
237 290
237 306
237 317
237 332
237 333
238 239
238 240
238 241
238 242
239 297
239 326
239 332
239 334
239 335
240 241
240 242
240 248
240 250
241 242
241 251
241 253
242 260
242 334
242 336
242 337
242 338
243 244
243 245
244 264
244 307
244 314
244 339
244 340
245 273
245 287
245 311
245 339
245 341
246 247
246 254
246 256
247 267
247 274
247 304
247 342
247 343
248 249
248 250
249 268
249 283
249 288
249 344
249 345
250 284
250 291
250 336
250 344
250 346
251 252
251 253
252 292
252 308
252 324
252 347
252 348
253 293
253 300
253 337
253 347
253 349
254 255
254 256
255 278
255 312
255 327
255 350
255 351
256 269
256 279
256 342
256 350
256 352
257 258
257 259
257 260
257 261
257 262
257 263
257 264
257 265
258 259
258 260
258 261
258 286
258 287
258 288
258 289
259 260
259 261
259 302
259 303
259 304
259 305
260 261
260 334
260 336
260 337
260 338
261 353
261 354
261 355
261 356
261 357
262 263
262 264
262 265
262 295
262 296
262 297
262 298
263 264
263 265
263 266
263 310
263 314
263 315
264 265
264 307
264 314
264 339
264 340
265 353
265 358
265 359
265 360
265 361
266 267
266 268
266 269
266 270
266 310
266 314
266 315
267 268
267 269
267 270
267 274
267 304
267 342
267 343
268 269
268 270
268 283
268 288
268 344
268 345
269 270
269 279
269 342
269 350
269 352
270 362
270 363
270 364
270 365
270 366
271 272
271 273
271 274
271 275
271 299
271 319
271 320
271 321
272 273
272 274
272 275
272 316
272 320
272 329
272 331
273 274
273 275
273 287
273 311
273 339
273 341
274 275
274 304
274 342
274 343
275 367
275 368
275 369
275 370
275 371
276 277
276 278
276 279
276 280
276 286
276 299
276 300
276 301
277 278
277 279
277 280
277 281
277 316
277 317
277 318
278 279
278 280
278 312
278 327
278 350
278 351
279 280
279 342
279 350
279 352
280 372
280 373
280 374
280 375
280 376
281 282
281 283
281 284
281 285
281 316
281 317
281 318
282 283
282 284
282 285
282 296
282 323
282 329
282 330
283 284
283 285
283 288
283 344
283 345
284 285
284 291
284 336
284 344
284 346
285 377
285 378
285 379
285 380
285 381
286 287
286 288
286 289
286 299
286 300
286 301
287 288
287 289
287 311
287 339
287 341
288 289
288 344
288 345
289 354
289 382
289 383
289 384
289 385
290 291
290 292
290 293
290 294
290 306
290 317
290 332
290 333
291 292
291 293
291 294
291 336
291 344
291 346
292 293
292 294
292 308
292 324
292 347
292 348
293 294
293 300
293 337
293 347
293 349
294 386
294 387
294 388
294 389
294 390
295 296
295 297
295 298
295 322
295 323
295 324
295 325
296 297
296 298
296 323
296 329
296 330
297 298
297 326
297 332
297 334
297 335
298 358
298 391
298 392
298 393
298 394
299 300
299 301
299 319
299 320
299 321
300 301
300 337
300 347
300 349
301 372
301 382
301 395
301 396
301 397
302 303
302 304
302 305
302 306
302 307
302 308
302 309
303 304
303 305
303 310
303 311
303 312
303 313
304 305
304 342
304 343
305 355
305 398
305 399
305 400
305 401
306 307
306 308
306 309
306 317
306 332
306 333
307 308
307 309
307 314
307 339
307 340
308 309
308 324
308 347
308 348
309 398
309 402
309 403
309 404
309 405
310 311
310 312
310 313
310 314
310 315
311 312
311 313
311 339
311 341
312 313
312 327
312 350
312 351
313 399
313 406
313 407
313 408
313 409
314 315
314 339
314 340
315 359
315 362
315 406
315 410
315 411
316 317
316 318
316 320
316 329
316 331
317 318
317 332
317 333
318 373
318 377
318 412
318 413
318 414
319 320
319 321
319 322
319 326
319 327
319 328
320 321
320 329
320 331
321 367
321 395
321 415
321 416
321 417
322 323
322 324
322 325
322 326
322 327
322 328
323 324
323 325
323 329
323 330
324 325
324 347
324 348
325 391
325 418
325 419
325 420
325 421
326 327
326 328
326 332
326 334
326 335
327 328
327 350
327 351
328 415
328 418
328 422
328 423
328 424
329 330
329 331
330 378
330 392
330 419
330 425
330 426
331 368
331 412
331 416
331 425
331 427
332 333
332 334
332 335
333 386
333 402
333 413
333 428
333 429
334 335
334 336
334 337
334 338
335 393
335 422
335 428
335 430
335 431
336 337
336 338
336 344
336 346
337 338
337 347
337 349
338 356
338 430
338 432
338 433
338 434
339 340
339 341
340 360
340 403
340 410
340 435
340 436
341 369
341 383
341 407
341 435
341 437
342 343
342 350
342 352
343 363
343 370
343 400
343 438
343 439
344 345
344 346
345 364
345 379
345 384
345 440
345 441
346 380
346 387
346 432
346 440
346 442
347 348
347 349
348 388
348 404
348 420
348 443
348 444
349 389
349 396
349 433
349 443
349 445
350 351
350 352
351 374
351 408
351 423
351 446
351 447
352 365
352 375
352 438
352 446
352 448
353 354
353 355
353 356
353 357
353 358
353 359
353 360
353 361
354 355
354 356
354 357
354 382
354 383
354 384
354 385
355 356
355 357
355 398
355 399
355 400
355 401
356 357
356 430
356 432
356 433
356 434
357 470
358 359
358 360
358 361
358 391
358 392
358 393
358 394
359 360
359 361
359 362
359 406
359 410
359 411
360 361
360 403
360 410
360 435
360 436
361 476
362 363
362 364
362 365
362 366
362 406
362 410
362 411
363 364
363 365
363 366
363 370
363 400
363 438
363 439
364 365
364 366
364 379
364 384
364 440
364 441
365 366
365 375
365 438
365 446
365 448
366 477
367 368
367 369
367 370
367 371
367 395
367 415
367 416
367 417
368 369
368 370
368 371
368 412
368 416
368 425
368 427
369 370
369 371
369 383
369 407
369 435
369 437
370 371
370 400
370 438
370 439
371 454
372 373
372 374
372 375
372 376
372 382
372 395
372 396
372 397
373 374
373 375
373 376
373 377
373 412
373 413
373 414
374 375
374 376
374 408
374 423
374 446
374 447
375 376
375 438
375 446
375 448
376 473
377 378
377 379
377 380
377 381
377 412
377 413
377 414
378 379
378 380
378 381
378 392
378 419
378 425
378 426
379 380
379 381
379 384
379 440
379 441
380 381
380 387
380 432
380 440
380 442
381 452
382 383
382 384
382 385
382 395
382 396
382 397
383 384
383 385
383 407
383 435
383 437
384 385
384 440
384 441
385 478
386 387
386 388
386 389
386 390
386 402
386 413
386 428
386 429
387 388
387 389
387 390
387 432
387 440
387 442
388 389
388 390
388 404
388 420
388 443
388 444
389 390
389 396
389 433
389 443
389 445
390 465
391 392
391 393
391 394
391 418
391 419
391 420
391 421
392 393
392 394
392 419
392 425
392 426
393 394
393 422
393 428
393 430
393 431
394 457
395 396
395 397
395 415
395 416
395 417
396 397
396 433
396 443
396 445
397 450
398 399
398 400
398 401
398 402
398 403
398 404
398 405
399 400
399 401
399 406
399 407
399 408
399 409
400 401
400 438
400 439
401 463
402 403
402 404
402 405
402 413
402 428
402 429
403 404
403 405
403 410
403 435
403 436
404 405
404 420
404 443
404 444
405 469
406 407
406 408
406 409
406 410
406 411
407 408
407 409
407 435
407 437
408 409
408 423
408 446
408 447
409 466
410 411
410 435
410 436
411 480
412 413
412 414
412 416
412 425
412 427
413 414
413 428
413 429
414 458
415 416
415 417
415 418
415 422
415 423
415 424
416 417
416 425
416 427
417 461
418 419
418 420
418 421
418 422
418 423
418 424
419 420
419 421
419 425
419 426
420 421
420 443
420 444
421 471
422 423
422 424
422 428
422 430
422 431
423 424
423 446
423 447
424 472
425 426
425 427
426 464
427 475
428 429
428 430
428 431
429 455
430 431
430 432
430 433
430 434
431 459
432 433
432 434
432 440
432 442
433 434
433 443
433 445
434 451
435 436
435 437
436 467
437 468
438 439
438 446
438 448
439 474
440 441
440 442
441 460
442 462
443 444
443 445
444 449
445 479
446 447
446 448
447 453
448 456
